
  32    1
  10

   0   0   5 2 3 4 6 8 
   6   1   3 10 7 5 
   3   3   2 13 5 
   6   8   1 5 
   5   6  10 31 30 21 20 19 18 17 16 15 14 
   3   7   4 30 19 12 9 
   2   2   5 30 19 18 15 9 
   2   3   7 31 21 18 17 15 14 11 
   5   3   5 31 24 21 16 14 
  10   3   3 30 18 14 
  10   6   7 30 29 28 27 24 23 22 
   4   6   4 28 24 18 15 
   8   4   2 18 14 
   9   3   5 29 28 27 23 22 
   7   6   4 29 27 25 22 
   7   2   4 28 27 25 22 
   6   7   4 29 27 26 24 
   8   4   4 29 27 26 25 
   2   3   3 28 26 23 
   7   2   3 28 27 25 
   1   3   2 27 26 
   7   3   1 26 
   8   4   1 25 
   2   3   1 25 
   2   6   1 32
   3   2   1 32
   1   3   1 32
   7   4   1 32
  10   4   1 32
  10   5   1 32
   4   4   1 32
   0   0   0 
